nK = 542;
nT = 4;
nI = 7;
L = 29;
TT = 119;
np = 1;
nc = 3;
b = [66, 33, 47, 70, 60, 36, 21];
d = [112, 114, 114, 150, 102, 58, 49];
m = [1.5, 1.8, 1.2, 1.2, 1, 2.1, 1.9];
pt = [0.2, 0.26, 0.34, 0.22];
st = [10.6, 14.56, 18.7, 11];
arc = {<1, 0, 1, 1, 0, 0, 0, [1, 1, 1, 1]>, <2, 1, 2, 1, 0, 0, 0, [1, 1, 1, 1]>, <3, 2, 3, 1, 0, 0, 0, [1, 1, 1, 1]>, <4, 3, 4, 1, 0, 0, 0, [1, 1, 1, 1]>, <5, 4, 5, 1, 0, 0, 0, [1, 1, 1, 1]>, <6, 5, 6, 1, 0, 0, 0, [1, 1, 1, 1]>, <7, 6, 7, 1, 0, 0, 0, [1, 1, 1, 1]>, <8, 7, 8, 1, 0, 0, 0, [1, 1, 1, 1]>, <9, 8, 9, 1, 0, 0, 0, [1, 1, 1, 1]>, <10, 9, 10, 1, 0, 0, 0, [1, 1, 1, 1]>, <11, 10, 11, 1, 0, 0, 0, [1, 1, 1, 1]>, <12, 11, 12, 1, 0, 0, 0, [1, 1, 1, 1]>, <13, 12, 13, 1, 0, 0, 0, [1, 1, 1, 1]>, <14, 13, 14, 1, 0, 0, 0, [1, 1, 1, 1]>, <15, 14, 15, 1, 0, 0, 0, [1, 1, 1, 1]>, <16, 15, 16, 1, 0, 0, 0, [1, 1, 1, 1]>, <17, 16, 17, 1, 0, 0, 0, [1, 1, 1, 1]>, <18, 17, 18, 1, 0, 0, 0, [1, 1, 1, 1]>, <19, 18, 19, 1, 0, 0, 0, [1, 1, 1, 1]>, <20, 19, 20, 1, 0, 0, 0, [1, 1, 1, 1]>, <21, 20, 21, 1, 0, 0, 0, [1, 1, 1, 1]>, <22, 21, 22, 1, 0, 0, 0, [1, 1, 1, 1]>, <23, 22, 23, 1, 0, 0, 0, [1, 1, 1, 1]>, <24, 23, 24, 1, 0, 0, 0, [1, 1, 1, 1]>, <25, 24, 25, 1, 0, 0, 0, [1, 1, 1, 1]>, <26, 25, 26, 1, 0, 0, 0, [1, 1, 1, 1]>, <27, 26, 27, 1, 0, 0, 0, [1, 1, 1, 1]>, <28, 27, 28, 1, 0, 0, 0, [1, 1, 1, 1]>, <29, 28, 29, 1, 0, 0, 0, [1, 1, 1, 1]>, <30, 4, 12, 8, 1, 0, 0, [1, 1, 1, 0]>, <31, 5, 13, 8, 1, 0, 0, [1, 1, 1, 0]>, <32, 11, 19, 8, 1, 0, 0, [1, 1, 1, 0]>, <33, 12, 20, 8, 1, 0, 0, [1, 1, 1, 0]>, <34, 16, 24, 8, 1, 0, 0, [1, 1, 1, 0]>, <35, 17, 25, 8, 1, 0, 0, [1, 1, 1, 0]>, <36, 18, 26, 8, 1, 0, 0, [1, 1, 1, 0]>, <37, 19, 27, 8, 1, 0, 0, [1, 1, 1, 0]>, <38, 20, 28, 8, 1, 0, 0, [1, 1, 1, 0]>, <39, 2, 12, 10, 2, 1, 0, [0, 1, 1, 1]>, <40, 3, 13, 10, 2, 1, 0, [0, 1, 1, 1]>, <41, 4, 14, 10, 2, 1, 0, [0, 1, 1, 1]>, <42, 5, 15, 10, 2, 1, 0, [0, 1, 1, 1]>, <43, 10, 20, 10, 2, 1, 0, [0, 1, 1, 1]>, <44, 11, 21, 10, 2, 1, 0, [0, 1, 1, 1]>, <45, 12, 22, 10, 2, 1, 0, [0, 1, 1, 1]>, <46, 14, 24, 10, 2, 1, 0, [0, 1, 1, 1]>, <47, 15, 25, 10, 2, 1, 0, [0, 1, 1, 1]>, <48, 16, 26, 10, 2, 1, 0, [0, 1, 1, 1]>, <49, 17, 27, 10, 2, 1, 0, [0, 1, 1, 1]>, <50, 18, 28, 10, 2, 1, 0, [0, 1, 1, 1]>, <51, 19, 29, 10, 2, 1, 0, [0, 1, 1, 1]>, <52, 3, 12, 9, 3, 0, 1, [1, 1, 0, 1]>, <53, 4, 13, 9, 3, 0, 1, [1, 1, 0, 1]>, <54, 5, 14, 9, 3, 0, 1, [1, 1, 0, 1]>, <55, 11, 20, 9, 3, 0, 1, [1, 1, 0, 1]>, <56, 12, 21, 9, 3, 0, 1, [1, 1, 0, 1]>, <57, 15, 24, 9, 3, 0, 1, [1, 1, 0, 1]>, <58, 16, 25, 9, 3, 0, 1, [1, 1, 0, 1]>, <59, 17, 26, 9, 3, 0, 1, [1, 1, 0, 1]>, <60, 18, 27, 9, 3, 0, 1, [1, 1, 0, 1]>, <61, 19, 28, 9, 3, 0, 1, [1, 1, 0, 1]>, <62, 20, 29, 9, 3, 0, 1, [1, 1, 0, 1]>, <63, 2, 12, 10, 4, 0, 1, [1, 1, 1, 0]>, <64, 3, 13, 10, 4, 0, 1, [1, 1, 1, 0]>, <65, 4, 14, 10, 4, 0, 1, [1, 1, 1, 0]>, <66, 5, 15, 10, 4, 0, 1, [1, 1, 1, 0]>, <67, 10, 20, 10, 4, 0, 1, [1, 1, 1, 0]>, <68, 11, 21, 10, 4, 0, 1, [1, 1, 1, 0]>, <69, 12, 22, 10, 4, 0, 1, [1, 1, 1, 0]>, <70, 14, 24, 10, 4, 0, 1, [1, 1, 1, 0]>, <71, 15, 25, 10, 4, 0, 1, [1, 1, 1, 0]>, <72, 16, 26, 10, 4, 0, 1, [1, 1, 1, 0]>, <73, 17, 27, 10, 4, 0, 1, [1, 1, 1, 0]>, <74, 18, 28, 10, 4, 0, 1, [1, 1, 1, 0]>, <75, 19, 29, 10, 4, 0, 1, [1, 1, 1, 0]>, <76, 2, 12, 10, 5, 1, 0, [0, 1, 1, 1]>, <77, 3, 13, 10, 5, 1, 0, [0, 1, 1, 1]>, <78, 4, 14, 10, 5, 1, 0, [0, 1, 1, 1]>, <79, 5, 15, 10, 5, 1, 0, [0, 1, 1, 1]>, <80, 10, 20, 10, 5, 1, 0, [0, 1, 1, 1]>, <81, 11, 21, 10, 5, 1, 0, [0, 1, 1, 1]>, <82, 12, 22, 10, 5, 1, 0, [0, 1, 1, 1]>, <83, 14, 24, 10, 5, 1, 0, [0, 1, 1, 1]>, <84, 15, 25, 10, 5, 1, 0, [0, 1, 1, 1]>, <85, 16, 26, 10, 5, 1, 0, [0, 1, 1, 1]>, <86, 17, 27, 10, 5, 1, 0, [0, 1, 1, 1]>, <87, 18, 28, 10, 5, 1, 0, [0, 1, 1, 1]>, <88, 19, 29, 10, 5, 1, 0, [0, 1, 1, 1]>, <89, 1, 12, 11, 6, 0, 1, [1, 1, 0, 1]>, <90, 2, 13, 11, 6, 0, 1, [1, 1, 0, 1]>, <91, 3, 14, 11, 6, 0, 1, [1, 1, 0, 1]>, <92, 4, 15, 11, 6, 0, 1, [1, 1, 0, 1]>, <93, 5, 16, 11, 6, 0, 1, [1, 1, 0, 1]>, <94, 9, 20, 11, 6, 0, 1, [1, 1, 0, 1]>, <95, 10, 21, 11, 6, 0, 1, [1, 1, 0, 1]>, <96, 11, 22, 11, 6, 0, 1, [1, 1, 0, 1]>, <97, 12, 23, 11, 6, 0, 1, [1, 1, 0, 1]>, <98, 13, 24, 11, 6, 0, 1, [1, 1, 0, 1]>, <99, 14, 25, 11, 6, 0, 1, [1, 1, 0, 1]>, <100, 15, 26, 11, 6, 0, 1, [1, 1, 0, 1]>, <101, 16, 27, 11, 6, 0, 1, [1, 1, 0, 1]>, <102, 17, 28, 11, 6, 0, 1, [1, 1, 0, 1]>, <103, 18, 29, 11, 6, 0, 1, [1, 1, 0, 1]>, <104, 3, 12, 9, 7, 0, 1, [0, 1, 1, 1]>, <105, 4, 13, 9, 7, 0, 1, [0, 1, 1, 1]>, <106, 5, 14, 9, 7, 0, 1, [0, 1, 1, 1]>, <107, 11, 20, 9, 7, 0, 1, [0, 1, 1, 1]>, <108, 12, 21, 9, 7, 0, 1, [0, 1, 1, 1]>, <109, 15, 24, 9, 7, 0, 1, [0, 1, 1, 1]>, <110, 16, 25, 9, 7, 0, 1, [0, 1, 1, 1]>, <111, 17, 26, 9, 7, 0, 1, [0, 1, 1, 1]>, <112, 18, 27, 9, 7, 0, 1, [0, 1, 1, 1]>, <113, 19, 28, 9, 7, 0, 1, [0, 1, 1, 1]>, <114, 20, 29, 9, 7, 0, 1, [0, 1, 1, 1]>};
